Maximize
 0
Subject To
 epc_0!1: -31.92515420059749 y_1!1_2!1 +55.27679595096242 y_1!2_2!1 +91.50532392259197 y_1!3_2!1 +29.950834583466758 y_1!4_2!1 -24.007249354290877 y_1!5_2!1 -55.07450271226708 y_1!6_2!1 +53.69664816098748 y_1!1_2!2 -47.71419533762946 y_1!2_2!2 -5.493514012528067 y_1!3_2!2 +96.18292458016748 y_1!4_2!2 +68.53490512423065 y_1!5_2!2 +62.01648822896962 y_1!6_2!2 +54.744591936213936 y_1!1_2!3 -7.9095031161821225 y_1!2_2!3 +80.1874664326154 y_1!3_2!3 +84.35046709173741 y_1!4_2!3 -59.844623706948894 y_1!5_2!3 +84.75481677045207 y_1!6_2!3 -78.38840878004096 y_1!1_2!4 -15.97125653546243 y_1!2_2!4 -69.40719193630405 y_1!3_2!4 +35.99423900663092 y_1!4_2!4 +8.8417361310741 y_1!5_2!4 +27.365130034527255 y_1!6_2!4 -84.24948208052179 y_1!1_2!5 -52.158627383873444 y_1!2_2!5 -51.234368293269064 y_1!3_2!5 +34.532187127437 y_1!4_2!5 -21.274740308677266 y_1!5_2!5 -3.81720316136105 y_1!6_2!5 -13.82965002452336 y_1!1_2!6 +60.37504000927649 y_1!2_2!6 +0.49094334963784547 y_1!3_2!6 -69.18275755999821 y_1!4_2!6 +65.8396812039339 y_1!5_2!6 -7.965774665825947 y_1!6_2!6 + lambda_0!1 - mu_0 = 0
 epc_0!2: -9.85156135347873 y_1!1_2!1 +85.77906640922214 y_1!2_2!1 -17.655271209518133 y_1!3_2!1 +89.13275167584635 y_1!4_2!1 -73.37505159981683 y_1!5_2!1 -90.25638566380059 y_1!6_2!1 +19.703258689095932 y_1!1_2!2 -95.53780815080242 y_1!2_2!2 +96.5054437145105 y_1!3_2!2 +32.31490391382806 y_1!4_2!2 -63.47269552392862 y_1!5_2!2 +84.70289628788447 y_1!6_2!2 -25.789132621140993 y_1!1_2!3 +58.488902712794214 y_1!2_2!3 -15.512865260006407 y_1!3_2!3 -81.78142652035021 y_1!4_2!3 -46.108190082037304 y_1!5_2!3 +36.10528609634491 y_1!6_2!3 +43.16833915567352 y_1!1_2!4 -2.9594426520303614 y_1!2_2!4 +99.03042534814136 y_1!3_2!4 +10.774678333621296 y_1!4_2!4 -19.236164990196073 y_1!5_2!4 +84.54529584613087 y_1!6_2!4 +31.605381126959998 y_1!1_2!5 -23.185782652521297 y_1!2_2!5 -54.65547869236116 y_1!3_2!5 -23.594219235681308 y_1!4_2!5 +55.35101039816129 y_1!5_2!5 -68.77733571599805 y_1!6_2!5 -93.76023169344327 y_1!1_2!6 +86.84814179956791 y_1!2_2!6 +57.641951607807925 y_1!3_2!6 -12.27371122332184 y_1!4_2!6 +15.059041336017359 y_1!5_2!6 -57.755323632795765 y_1!6_2!6 + lambda_0!2 - mu_0 = 0
 epc_0!3: +83.30658939650911 y_1!1_2!1 +44.33399230471454 y_1!2_2!1 +11.50029537846477 y_1!3_2!1 -58.623774758630674 y_1!4_2!1 +66.04976052456917 y_1!5_2!1 -75.11019556676766 y_1!6_2!1 +1.7348991508397091 y_1!1_2!2 -68.2136355847168 y_1!2_2!2 -53.36317211238162 y_1!3_2!2 -73.19457126140776 y_1!4_2!2 -24.048128063198718 y_1!5_2!2 -5.203006841724829 y_1!6_2!2 +69.00890688831561 y_1!1_2!3 -24.63424844776732 y_1!2_2!3 +13.94922118100456 y_1!3_2!3 +78.65261030235033 y_1!4_2!3 -50.27650863984137 y_1!5_2!3 +24.34939813836148 y_1!6_2!3 -33.494317192905896 y_1!1_2!4 +55.61310036624738 y_1!2_2!4 -76.68095255925098 y_1!3_2!4 +95.36609088372487 y_1!4_2!4 -14.385294776932682 y_1!5_2!4 -65.46063000292497 y_1!6_2!4 -64.2613603354445 y_1!1_2!5 +70.13587950917858 y_1!2_2!5 +65.66809136686425 y_1!3_2!5 +45.56150656199756 y_1!4_2!5 +24.093938705502097 y_1!5_2!5 +86.49153406006468 y_1!6_2!5 -41.12937673693446 y_1!1_2!6 +72.61070382590279 y_1!2_2!6 +71.05078213083132 y_1!3_2!6 +38.885329592579865 y_1!4_2!6 +78.16688999850882 y_1!5_2!6 +59.59622125766984 y_1!6_2!6 + lambda_0!3 - mu_0 = 0
 epc_0!4: +18.069321917461536 y_1!1_2!1 +77.62994232293806 y_1!2_2!1 +9.784340801753743 y_1!3_2!1 +48.25259765561691 y_1!4_2!1 -5.530448496526375 y_1!5_2!1 -86.62891032121351 y_1!6_2!1 +24.04900341965306 y_1!1_2!2 +25.64908930645518 y_1!2_2!2 -47.35819806926467 y_1!3_2!2 +54.82222228571686 y_1!4_2!2 +16.60469693266178 y_1!5_2!2 +40.99972160056146 y_1!6_2!2 +52.85461668136077 y_1!1_2!3 +53.38774469529616 y_1!2_2!3 +66.7565028526032 y_1!3_2!3 +45.50489220652568 y_1!4_2!3 -15.505325533142639 y_1!5_2!3 -25.28173353584802 y_1!6_2!3 -95.27125396470278 y_1!1_2!4 -13.063705004354247 y_1!2_2!4 +0.4679264355368815 y_1!3_2!4 +56.55228120556691 y_1!4_2!4 +14.480395189081577 y_1!5_2!4 -82.7594676925744 y_1!6_2!4 +40.18713568693565 y_1!1_2!5 +20.964592849377553 y_1!2_2!5 -15.127413726856958 y_1!3_2!5 +20.565155983762267 y_1!4_2!5 -26.82286994005085 y_1!5_2!5 +85.55272799251418 y_1!6_2!5 -33.78061508032022 y_1!1_2!6 +31.2382676482099 y_1!2_2!6 +45.328942815759234 y_1!3_2!6 -31.907437953352442 y_1!4_2!6 -60.746859802678685 y_1!5_2!6 -38.76697895174246 y_1!6_2!6 + lambda_0!4 - mu_0 = 0
 epc_0!5: -79.35510828605379 y_1!1_2!1 -16.207054600375187 y_1!2_2!1 -86.20995834676384 y_1!3_2!1 -17.68543271188652 y_1!4_2!1 -1.7099800973493728 y_1!5_2!1 -26.26481225238706 y_1!6_2!1 -91.86626383087817 y_1!1_2!2 +76.37533739357914 y_1!2_2!2 -50.6479341897073 y_1!3_2!2 -86.9867859137006 y_1!4_2!2 -12.465439414363118 y_1!5_2!2 -32.1855048869847 y_1!6_2!2 -77.53514944256722 y_1!1_2!3 +91.63874147769852 y_1!2_2!3 +33.37699417748047 y_1!3_2!3 -19.2713668082463 y_1!4_2!3 -87.0947795486964 y_1!5_2!3 -83.5166882090627 y_1!6_2!3 -51.38003813106289 y_1!1_2!4 -77.03731871168165 y_1!2_2!4 +58.11324520706748 y_1!3_2!4 -26.035375908332 y_1!4_2!4 +36.91691684237418 y_1!5_2!4 -37.037477231506614 y_1!6_2!4 +38.10746926231508 y_1!1_2!5 +36.88574125400845 y_1!2_2!5 -31.72847477340335 y_1!3_2!5 -11.328942474063325 y_1!4_2!5 -43.42361487518298 y_1!5_2!5 -96.29167423481788 y_1!6_2!5 -67.98971241951159 y_1!1_2!6 -38.25102802971394 y_1!2_2!6 -71.57252870793192 y_1!3_2!6 +8.54124819272026 y_1!4_2!6 +27.853271699887756 y_1!5_2!6 +30.401469128065372 y_1!6_2!6 + lambda_0!5 - mu_0 = 0
 epc_0!6: -8.393462968795234 y_1!1_2!1 +23.90197340084063 y_1!2_2!1 -25.730645388132416 y_1!3_2!1 +8.097225423476644 y_1!4_2!1 -47.84989832313777 y_1!5_2!1 -63.8326095726393 y_1!6_2!1 +39.13428046933248 y_1!1_2!2 -28.8708360717562 y_1!2_2!2 -28.756287176243987 y_1!3_2!2 -72.1520566279029 y_1!4_2!2 +84.31507394771012 y_1!5_2!2 +89.2388211090506 y_1!6_2!2 -3.699476456795537 y_1!1_2!3 +79.53408124808826 y_1!2_2!3 -27.824986307882952 y_1!3_2!3 +82.0745356443372 y_1!4_2!3 +7.44274027659246 y_1!5_2!3 +50.21474638876816 y_1!6_2!3 -19.50702818216294 y_1!1_2!4 +77.31504078514271 y_1!2_2!4 -5.436720453275171 y_1!3_2!4 -34.57394294236602 y_1!4_2!4 +56.82610063444278 y_1!5_2!4 +62.15432023122531 y_1!6_2!4 -74.87772905402878 y_1!1_2!5 +21.330183797136584 y_1!2_2!5 +92.12300716022185 y_1!3_2!5 +85.48230941133477 y_1!4_2!5 +72.20970824094528 y_1!5_2!5 -13.244365628991801 y_1!6_2!5 +8.1186327025611 y_1!1_2!6 +17.79259629961976 y_1!2_2!6 -77.59457697146767 y_1!3_2!6 +35.230219523712464 y_1!4_2!6 -96.9578222854786 y_1!5_2!6 -74.1515505013196 y_1!6_2!6 + lambda_0!6 - mu_0 = 0
 dc_0: x_0!1 + x_0!2 + x_0!3 + x_0!4 + x_0!5 + x_0!6 = 1
 bc_0!1: lambda_0!1 +299.28943464996655 x_0!1 <= 299.28943464996655
 bc_0!2: lambda_0!2 +299.28943464996655 x_0!2 <= 299.28943464996655
 bc_0!3: lambda_0!3 +299.28943464996655 x_0!3 <= 299.28943464996655
 bc_0!4: lambda_0!4 +299.28943464996655 x_0!4 <= 299.28943464996655
 bc_0!5: lambda_0!5 +299.28943464996655 x_0!5 <= 299.28943464996655
 bc_0!6: lambda_0!6 +299.28943464996655 x_0!6 <= 299.28943464996655
 sum_0!1: y_1!1_2!1 - x_1!1 - x_2!1 >= -1
 idk_0!1!1: y_1!1_2!1 - x_1!1 <= 0
 idk_0!1!2: y_1!1_2!1 - x_2!1 <= 0
 sum_0!2: y_1!2_2!1 - x_1!2 - x_2!1 >= -1
 idk_0!2!1: y_1!2_2!1 - x_1!2 <= 0
 idk_0!2!2: y_1!2_2!1 - x_2!1 <= 0
 sum_0!3: y_1!3_2!1 - x_1!3 - x_2!1 >= -1
 idk_0!3!1: y_1!3_2!1 - x_1!3 <= 0
 idk_0!3!2: y_1!3_2!1 - x_2!1 <= 0
 sum_0!4: y_1!4_2!1 - x_1!4 - x_2!1 >= -1
 idk_0!4!1: y_1!4_2!1 - x_1!4 <= 0
 idk_0!4!2: y_1!4_2!1 - x_2!1 <= 0
 sum_0!5: y_1!5_2!1 - x_1!5 - x_2!1 >= -1
 idk_0!5!1: y_1!5_2!1 - x_1!5 <= 0
 idk_0!5!2: y_1!5_2!1 - x_2!1 <= 0
 sum_0!6: y_1!6_2!1 - x_1!6 - x_2!1 >= -1
 idk_0!6!1: y_1!6_2!1 - x_1!6 <= 0
 idk_0!6!2: y_1!6_2!1 - x_2!1 <= 0
 sum_0!7: y_1!1_2!2 - x_1!1 - x_2!2 >= -1
 idk_0!7!1: y_1!1_2!2 - x_1!1 <= 0
 idk_0!7!2: y_1!1_2!2 - x_2!2 <= 0
 sum_0!8: y_1!2_2!2 - x_1!2 - x_2!2 >= -1
 idk_0!8!1: y_1!2_2!2 - x_1!2 <= 0
 idk_0!8!2: y_1!2_2!2 - x_2!2 <= 0
 sum_0!9: y_1!3_2!2 - x_1!3 - x_2!2 >= -1
 idk_0!9!1: y_1!3_2!2 - x_1!3 <= 0
 idk_0!9!2: y_1!3_2!2 - x_2!2 <= 0
 sum_0!10: y_1!4_2!2 - x_1!4 - x_2!2 >= -1
 idk_0!10!1: y_1!4_2!2 - x_1!4 <= 0
 idk_0!10!2: y_1!4_2!2 - x_2!2 <= 0
 sum_0!11: y_1!5_2!2 - x_1!5 - x_2!2 >= -1
 idk_0!11!1: y_1!5_2!2 - x_1!5 <= 0
 idk_0!11!2: y_1!5_2!2 - x_2!2 <= 0
 sum_0!12: y_1!6_2!2 - x_1!6 - x_2!2 >= -1
 idk_0!12!1: y_1!6_2!2 - x_1!6 <= 0
 idk_0!12!2: y_1!6_2!2 - x_2!2 <= 0
 sum_0!13: y_1!1_2!3 - x_1!1 - x_2!3 >= -1
 idk_0!13!1: y_1!1_2!3 - x_1!1 <= 0
 idk_0!13!2: y_1!1_2!3 - x_2!3 <= 0
 sum_0!14: y_1!2_2!3 - x_1!2 - x_2!3 >= -1
 idk_0!14!1: y_1!2_2!3 - x_1!2 <= 0
 idk_0!14!2: y_1!2_2!3 - x_2!3 <= 0
 sum_0!15: y_1!3_2!3 - x_1!3 - x_2!3 >= -1
 idk_0!15!1: y_1!3_2!3 - x_1!3 <= 0
 idk_0!15!2: y_1!3_2!3 - x_2!3 <= 0
 sum_0!16: y_1!4_2!3 - x_1!4 - x_2!3 >= -1
 idk_0!16!1: y_1!4_2!3 - x_1!4 <= 0
 idk_0!16!2: y_1!4_2!3 - x_2!3 <= 0
 sum_0!17: y_1!5_2!3 - x_1!5 - x_2!3 >= -1
 idk_0!17!1: y_1!5_2!3 - x_1!5 <= 0
 idk_0!17!2: y_1!5_2!3 - x_2!3 <= 0
 sum_0!18: y_1!6_2!3 - x_1!6 - x_2!3 >= -1
 idk_0!18!1: y_1!6_2!3 - x_1!6 <= 0
 idk_0!18!2: y_1!6_2!3 - x_2!3 <= 0
 sum_0!19: y_1!1_2!4 - x_1!1 - x_2!4 >= -1
 idk_0!19!1: y_1!1_2!4 - x_1!1 <= 0
 idk_0!19!2: y_1!1_2!4 - x_2!4 <= 0
 sum_0!20: y_1!2_2!4 - x_1!2 - x_2!4 >= -1
 idk_0!20!1: y_1!2_2!4 - x_1!2 <= 0
 idk_0!20!2: y_1!2_2!4 - x_2!4 <= 0
 sum_0!21: y_1!3_2!4 - x_1!3 - x_2!4 >= -1
 idk_0!21!1: y_1!3_2!4 - x_1!3 <= 0
 idk_0!21!2: y_1!3_2!4 - x_2!4 <= 0
 sum_0!22: y_1!4_2!4 - x_1!4 - x_2!4 >= -1
 idk_0!22!1: y_1!4_2!4 - x_1!4 <= 0
 idk_0!22!2: y_1!4_2!4 - x_2!4 <= 0
 sum_0!23: y_1!5_2!4 - x_1!5 - x_2!4 >= -1
 idk_0!23!1: y_1!5_2!4 - x_1!5 <= 0
 idk_0!23!2: y_1!5_2!4 - x_2!4 <= 0
 sum_0!24: y_1!6_2!4 - x_1!6 - x_2!4 >= -1
 idk_0!24!1: y_1!6_2!4 - x_1!6 <= 0
 idk_0!24!2: y_1!6_2!4 - x_2!4 <= 0
 sum_0!25: y_1!1_2!5 - x_1!1 - x_2!5 >= -1
 idk_0!25!1: y_1!1_2!5 - x_1!1 <= 0
 idk_0!25!2: y_1!1_2!5 - x_2!5 <= 0
 sum_0!26: y_1!2_2!5 - x_1!2 - x_2!5 >= -1
 idk_0!26!1: y_1!2_2!5 - x_1!2 <= 0
 idk_0!26!2: y_1!2_2!5 - x_2!5 <= 0
 sum_0!27: y_1!3_2!5 - x_1!3 - x_2!5 >= -1
 idk_0!27!1: y_1!3_2!5 - x_1!3 <= 0
 idk_0!27!2: y_1!3_2!5 - x_2!5 <= 0
 sum_0!28: y_1!4_2!5 - x_1!4 - x_2!5 >= -1
 idk_0!28!1: y_1!4_2!5 - x_1!4 <= 0
 idk_0!28!2: y_1!4_2!5 - x_2!5 <= 0
 sum_0!29: y_1!5_2!5 - x_1!5 - x_2!5 >= -1
 idk_0!29!1: y_1!5_2!5 - x_1!5 <= 0
 idk_0!29!2: y_1!5_2!5 - x_2!5 <= 0
 sum_0!30: y_1!6_2!5 - x_1!6 - x_2!5 >= -1
 idk_0!30!1: y_1!6_2!5 - x_1!6 <= 0
 idk_0!30!2: y_1!6_2!5 - x_2!5 <= 0
 sum_0!31: y_1!1_2!6 - x_1!1 - x_2!6 >= -1
 idk_0!31!1: y_1!1_2!6 - x_1!1 <= 0
 idk_0!31!2: y_1!1_2!6 - x_2!6 <= 0
 sum_0!32: y_1!2_2!6 - x_1!2 - x_2!6 >= -1
 idk_0!32!1: y_1!2_2!6 - x_1!2 <= 0
 idk_0!32!2: y_1!2_2!6 - x_2!6 <= 0
 sum_0!33: y_1!3_2!6 - x_1!3 - x_2!6 >= -1
 idk_0!33!1: y_1!3_2!6 - x_1!3 <= 0
 idk_0!33!2: y_1!3_2!6 - x_2!6 <= 0
 sum_0!34: y_1!4_2!6 - x_1!4 - x_2!6 >= -1
 idk_0!34!1: y_1!4_2!6 - x_1!4 <= 0
 idk_0!34!2: y_1!4_2!6 - x_2!6 <= 0
 sum_0!35: y_1!5_2!6 - x_1!5 - x_2!6 >= -1
 idk_0!35!1: y_1!5_2!6 - x_1!5 <= 0
 idk_0!35!2: y_1!5_2!6 - x_2!6 <= 0
 sum_0!36: y_1!6_2!6 - x_1!6 - x_2!6 >= -1
 idk_0!36!1: y_1!6_2!6 - x_1!6 <= 0
 idk_0!36!2: y_1!6_2!6 - x_2!6 <= 0
 epc_1!1: +78.86318585919665 y_0!1_2!1 -47.27767571307502 y_0!2_2!1 +1.5750093752147762 y_0!3_2!1 -85.50939136300391 y_0!4_2!1 -79.24835213963928 y_0!5_2!1 -38.41405076840119 y_0!6_2!1 +84.5898619750416 y_0!1_2!2 -4.206924449707827 y_0!2_2!2 -7.288255638861045 y_0!3_2!2 +90.07762030985879 y_0!4_2!2 +67.30480809779664 y_0!5_2!2 +83.04297772725752 y_0!6_2!2 -65.96943396452409 y_0!1_2!3 +37.18581453108541 y_0!2_2!3 +50.45499654990513 y_0!3_2!3 +39.99391804626654 y_0!4_2!3 +95.15547823616907 y_0!5_2!3 -79.87664619298425 y_0!6_2!3 -36.230387638089255 y_0!1_2!4 +35.329143752566665 y_0!2_2!4 -71.495473677188 y_0!3_2!4 -50.87599066889421 y_0!4_2!4 -63.145797451817785 y_0!5_2!4 -57.77295804400771 y_0!6_2!4 +86.35106019044906 y_0!1_2!5 -65.06240019158389 y_0!2_2!5 +1.310193084565796 y_0!3_2!5 +28.37127315691768 y_0!4_2!5 +32.21337668306964 y_0!5_2!5 +24.194356968223943 y_0!6_2!5 +64.99754407779079 y_0!1_2!6 -16.2862360695637 y_0!2_2!6 +44.02006872094839 y_0!3_2!6 -48.01834621891832 y_0!4_2!6 +63.318303093307435 y_0!5_2!6 +2.290488541136142 y_0!6_2!6 + lambda_1!1 - mu_1 = 0
 epc_1!2: -63.01956579842507 y_0!1_2!1 +95.15542409765953 y_0!2_2!1 +17.858822246374785 y_0!3_2!1 -30.673574380307798 y_0!4_2!1 +90.18776853322606 y_0!5_2!1 +22.375502391198026 y_0!6_2!1 -75.12238260796863 y_0!1_2!2 -29.682971655497155 y_0!2_2!2 +58.37872028841616 y_0!3_2!2 +23.994043777061975 y_0!4_2!2 +83.77949821080762 y_0!5_2!2 -26.78368760002074 y_0!6_2!2 +71.81717918536776 y_0!1_2!3 +94.22328140859113 y_0!2_2!3 -54.96501831242304 y_0!3_2!3 +38.11325459685443 y_0!4_2!3 -89.75914197668959 y_0!5_2!3 -10.048239535565799 y_0!6_2!3 -29.914792164017115 y_0!1_2!4 -87.7651714103026 y_0!2_2!4 +5.012746766866783 y_0!3_2!4 +68.64983608039805 y_0!4_2!4 +68.37237564218822 y_0!5_2!4 -50.70350548680853 y_0!6_2!4 +5.753644982359418 y_0!1_2!5 +9.664158061181325 y_0!2_2!5 +73.9465407825677 y_0!3_2!5 +53.66936204027962 y_0!4_2!5 +8.339193488423533 y_0!5_2!5 +29.50182022872596 y_0!6_2!5 +34.35457237214038 y_0!1_2!6 +84.09397360452846 y_0!2_2!6 +50.42157522793909 y_0!3_2!6 +80.71814727893391 y_0!4_2!6 +78.77348785268535 y_0!5_2!6 -24.744534402453795 y_0!6_2!6 + lambda_1!2 - mu_1 = 0
 epc_1!3: -61.523643256312745 y_0!1_2!1 -96.01682168742505 y_0!2_2!1 -38.50948389594482 y_0!3_2!1 -5.839885481444696 y_0!4_2!1 -86.25588620220583 y_0!5_2!1 +53.58361904091464 y_0!6_2!1 +6.715219321845396 y_0!1_2!2 +81.29292321322231 y_0!2_2!2 +67.25406706750482 y_0!3_2!2 +11.207254422008788 y_0!4_2!2 -68.54576814881679 y_0!5_2!2 +17.544683022503165 y_0!6_2!2 +25.247050662673203 y_0!1_2!3 -63.031649061550546 y_0!2_2!3 +65.22388968603286 y_0!3_2!3 -8.007568765244713 y_0!4_2!3 +84.72752055612091 y_0!5_2!3 -16.250817264792275 y_0!6_2!3 +70.12501805585913 y_0!1_2!4 +58.25815353926518 y_0!2_2!4 +80.23777401167422 y_0!3_2!4 +53.12713659485422 y_0!4_2!4 +97.26682907656752 y_0!5_2!4 -56.81363390544549 y_0!6_2!4 +17.304287569153033 y_0!1_2!5 -9.482208113613495 y_0!2_2!5 -95.77777571505288 y_0!3_2!5 +94.28014001811641 y_0!4_2!5 -44.09284728465099 y_0!5_2!5 +40.219609605781926 y_0!6_2!5 -98.97311856685099 y_0!1_2!6 -85.26629751593512 y_0!2_2!6 +24.99521156791525 y_0!3_2!6 +71.25310984798531 y_0!4_2!6 -48.77734075007956 y_0!5_2!6 +98.38352873704034 y_0!6_2!6 + lambda_1!3 - mu_1 = 0
 epc_1!4: +57.56810842903215 y_0!1_2!1 +99.23461383656627 y_0!2_2!1 -44.852146175831486 y_0!3_2!1 +93.256783257916 y_0!4_2!1 +29.5105268080149 y_0!5_2!1 +31.12921161509803 y_0!6_2!1 +32.92195194939265 y_0!1_2!2 +56.31523044945823 y_0!2_2!2 +26.293886988908625 y_0!3_2!2 -36.5150575725901 y_0!4_2!2 -92.99432204663334 y_0!5_2!2 -48.727265479132 y_0!6_2!2 +54.042212224423736 y_0!1_2!3 -55.34035994814492 y_0!2_2!3 +1.549752286919741 y_0!3_2!3 -50.94017049484319 y_0!4_2!3 -32.59514207232603 y_0!5_2!3 +35.10135188072573 y_0!6_2!3 +78.09606511000041 y_0!1_2!4 -91.73792174788494 y_0!2_2!4 -5.848679948629524 y_0!3_2!4 -53.46483555015518 y_0!4_2!4 +97.38592572569848 y_0!5_2!4 -20.918101950405216 y_0!6_2!4 -27.681050896617478 y_0!1_2!5 -20.640269768626823 y_0!2_2!5 +76.8695489964206 y_0!3_2!5 -22.900300067957517 y_0!4_2!5 +47.297888934261664 y_0!5_2!5 -99.30056361420382 y_0!6_2!5 +38.11015708889903 y_0!1_2!6 +52.036493620184274 y_0!2_2!6 +45.8736401599177 y_0!3_2!6 +60.909665304809494 y_0!4_2!6 +36.21221908483719 y_0!5_2!6 -99.55073776422894 y_0!6_2!6 + lambda_1!4 - mu_1 = 0
 epc_1!5: -30.930944556425203 y_0!1_2!1 +66.18466698073672 y_0!2_2!1 +1.5566571675947927 y_0!3_2!1 +94.2250463157489 y_0!4_2!1 +38.9619169432369 y_0!5_2!1 +11.866748720486896 y_0!6_2!1 -53.17961354370937 y_0!1_2!2 -74.20087072933907 y_0!2_2!2 +70.69607662138776 y_0!3_2!2 -7.7528542706910315 y_0!4_2!2 +95.36616168065311 y_0!5_2!2 -79.55302960346165 y_0!6_2!2 -55.82410470710191 y_0!1_2!3 +21.24554776956002 y_0!2_2!3 +44.37492522306209 y_0!3_2!3 -76.27696909861059 y_0!4_2!3 +49.395371029869835 y_0!5_2!3 -0.516936603947542 y_0!6_2!3 +25.76327952493756 y_0!1_2!4 +34.215858674669335 y_0!2_2!4 -31.332624385967534 y_0!3_2!4 +95.0796511434798 y_0!4_2!4 -77.15253817013905 y_0!5_2!4 -6.979887658872229 y_0!6_2!4 -94.65083632460735 y_0!1_2!5 +85.59494116254498 y_0!2_2!5 +33.9207494239557 y_0!3_2!5 +66.99692443397993 y_0!4_2!5 +46.874843191744816 y_0!5_2!5 -12.225172851630333 y_0!6_2!5 -94.56241472058811 y_0!1_2!6 +38.47365697431681 y_0!2_2!6 -12.754317564728822 y_0!3_2!6 +6.905942662444133 y_0!4_2!6 -10.007128784856079 y_0!5_2!6 -76.39271967228281 y_0!6_2!6 + lambda_1!5 - mu_1 = 0
 epc_1!6: +23.71887964682864 y_0!1_2!1 -42.95070379750787 y_0!2_2!1 -24.38475245354219 y_0!3_2!1 +25.993237792515146 y_0!4_2!1 -54.275557167830655 y_0!5_2!1 -41.69361793433517 y_0!6_2!1 +10.559987703740887 y_0!1_2!2 -34.767656003294434 y_0!2_2!2 -83.45064045684344 y_0!3_2!2 -73.07929735802811 y_0!4_2!2 -47.50997058690864 y_0!5_2!2 -12.900963761550017 y_0!6_2!2 +25.119695693179267 y_0!1_2!3 +19.26049392935529 y_0!2_2!3 -38.451044569660176 y_0!3_2!3 -58.9251222785184 y_0!4_2!3 -58.189024920914356 y_0!5_2!3 -36.245667324959555 y_0!6_2!3 -16.281013522774984 y_0!1_2!4 -24.917542108109927 y_0!2_2!4 -20.95549613319419 y_0!3_2!4 +58.859259360767425 y_0!4_2!4 +15.526227247211693 y_0!5_2!4 +38.68792993989126 y_0!6_2!4 +22.68663274054468 y_0!1_2!5 -12.840638066391577 y_0!2_2!5 +91.19203397005037 y_0!3_2!5 -1.5574469296568907 y_0!4_2!5 -95.00884537507952 y_0!5_2!5 -66.87752241429138 y_0!6_2!5 -45.658336763959475 y_0!1_2!6 -13.405177413391797 y_0!2_2!6 -88.08865149244775 y_0!3_2!6 -80.15004547107685 y_0!4_2!6 -15.07388538117236 y_0!5_2!6 +29.73314533797955 y_0!6_2!6 + lambda_1!6 - mu_1 = 0
 dc_1: x_1!1 + x_1!2 + x_1!3 + x_1!4 + x_1!5 + x_1!6 = 1
 bc_1!1: lambda_1!1 +299.28943464996655 x_1!1 <= 299.28943464996655
 bc_1!2: lambda_1!2 +299.28943464996655 x_1!2 <= 299.28943464996655
 bc_1!3: lambda_1!3 +299.28943464996655 x_1!3 <= 299.28943464996655
 bc_1!4: lambda_1!4 +299.28943464996655 x_1!4 <= 299.28943464996655
 bc_1!5: lambda_1!5 +299.28943464996655 x_1!5 <= 299.28943464996655
 bc_1!6: lambda_1!6 +299.28943464996655 x_1!6 <= 299.28943464996655
 sum_1!1: y_0!1_2!1 - x_0!1 - x_2!1 >= -1
 idk_1!1!0: y_0!1_2!1 - x_0!1 <= 0
 idk_1!1!2: y_0!1_2!1 - x_2!1 <= 0
 sum_1!2: y_0!2_2!1 - x_0!2 - x_2!1 >= -1
 idk_1!2!0: y_0!2_2!1 - x_0!2 <= 0
 idk_1!2!2: y_0!2_2!1 - x_2!1 <= 0
 sum_1!3: y_0!3_2!1 - x_0!3 - x_2!1 >= -1
 idk_1!3!0: y_0!3_2!1 - x_0!3 <= 0
 idk_1!3!2: y_0!3_2!1 - x_2!1 <= 0
 sum_1!4: y_0!4_2!1 - x_0!4 - x_2!1 >= -1
 idk_1!4!0: y_0!4_2!1 - x_0!4 <= 0
 idk_1!4!2: y_0!4_2!1 - x_2!1 <= 0
 sum_1!5: y_0!5_2!1 - x_0!5 - x_2!1 >= -1
 idk_1!5!0: y_0!5_2!1 - x_0!5 <= 0
 idk_1!5!2: y_0!5_2!1 - x_2!1 <= 0
 sum_1!6: y_0!6_2!1 - x_0!6 - x_2!1 >= -1
 idk_1!6!0: y_0!6_2!1 - x_0!6 <= 0
 idk_1!6!2: y_0!6_2!1 - x_2!1 <= 0
 sum_1!7: y_0!1_2!2 - x_0!1 - x_2!2 >= -1
 idk_1!7!0: y_0!1_2!2 - x_0!1 <= 0
 idk_1!7!2: y_0!1_2!2 - x_2!2 <= 0
 sum_1!8: y_0!2_2!2 - x_0!2 - x_2!2 >= -1
 idk_1!8!0: y_0!2_2!2 - x_0!2 <= 0
 idk_1!8!2: y_0!2_2!2 - x_2!2 <= 0
 sum_1!9: y_0!3_2!2 - x_0!3 - x_2!2 >= -1
 idk_1!9!0: y_0!3_2!2 - x_0!3 <= 0
 idk_1!9!2: y_0!3_2!2 - x_2!2 <= 0
 sum_1!10: y_0!4_2!2 - x_0!4 - x_2!2 >= -1
 idk_1!10!0: y_0!4_2!2 - x_0!4 <= 0
 idk_1!10!2: y_0!4_2!2 - x_2!2 <= 0
 sum_1!11: y_0!5_2!2 - x_0!5 - x_2!2 >= -1
 idk_1!11!0: y_0!5_2!2 - x_0!5 <= 0
 idk_1!11!2: y_0!5_2!2 - x_2!2 <= 0
 sum_1!12: y_0!6_2!2 - x_0!6 - x_2!2 >= -1
 idk_1!12!0: y_0!6_2!2 - x_0!6 <= 0
 idk_1!12!2: y_0!6_2!2 - x_2!2 <= 0
 sum_1!13: y_0!1_2!3 - x_0!1 - x_2!3 >= -1
 idk_1!13!0: y_0!1_2!3 - x_0!1 <= 0
 idk_1!13!2: y_0!1_2!3 - x_2!3 <= 0
 sum_1!14: y_0!2_2!3 - x_0!2 - x_2!3 >= -1
 idk_1!14!0: y_0!2_2!3 - x_0!2 <= 0
 idk_1!14!2: y_0!2_2!3 - x_2!3 <= 0
 sum_1!15: y_0!3_2!3 - x_0!3 - x_2!3 >= -1
 idk_1!15!0: y_0!3_2!3 - x_0!3 <= 0
 idk_1!15!2: y_0!3_2!3 - x_2!3 <= 0
 sum_1!16: y_0!4_2!3 - x_0!4 - x_2!3 >= -1
 idk_1!16!0: y_0!4_2!3 - x_0!4 <= 0
 idk_1!16!2: y_0!4_2!3 - x_2!3 <= 0
 sum_1!17: y_0!5_2!3 - x_0!5 - x_2!3 >= -1
 idk_1!17!0: y_0!5_2!3 - x_0!5 <= 0
 idk_1!17!2: y_0!5_2!3 - x_2!3 <= 0
 sum_1!18: y_0!6_2!3 - x_0!6 - x_2!3 >= -1
 idk_1!18!0: y_0!6_2!3 - x_0!6 <= 0
 idk_1!18!2: y_0!6_2!3 - x_2!3 <= 0
 sum_1!19: y_0!1_2!4 - x_0!1 - x_2!4 >= -1
 idk_1!19!0: y_0!1_2!4 - x_0!1 <= 0
 idk_1!19!2: y_0!1_2!4 - x_2!4 <= 0
 sum_1!20: y_0!2_2!4 - x_0!2 - x_2!4 >= -1
 idk_1!20!0: y_0!2_2!4 - x_0!2 <= 0
 idk_1!20!2: y_0!2_2!4 - x_2!4 <= 0
 sum_1!21: y_0!3_2!4 - x_0!3 - x_2!4 >= -1
 idk_1!21!0: y_0!3_2!4 - x_0!3 <= 0
 idk_1!21!2: y_0!3_2!4 - x_2!4 <= 0
 sum_1!22: y_0!4_2!4 - x_0!4 - x_2!4 >= -1
 idk_1!22!0: y_0!4_2!4 - x_0!4 <= 0
 idk_1!22!2: y_0!4_2!4 - x_2!4 <= 0
 sum_1!23: y_0!5_2!4 - x_0!5 - x_2!4 >= -1
 idk_1!23!0: y_0!5_2!4 - x_0!5 <= 0
 idk_1!23!2: y_0!5_2!4 - x_2!4 <= 0
 sum_1!24: y_0!6_2!4 - x_0!6 - x_2!4 >= -1
 idk_1!24!0: y_0!6_2!4 - x_0!6 <= 0
 idk_1!24!2: y_0!6_2!4 - x_2!4 <= 0
 sum_1!25: y_0!1_2!5 - x_0!1 - x_2!5 >= -1
 idk_1!25!0: y_0!1_2!5 - x_0!1 <= 0
 idk_1!25!2: y_0!1_2!5 - x_2!5 <= 0
 sum_1!26: y_0!2_2!5 - x_0!2 - x_2!5 >= -1
 idk_1!26!0: y_0!2_2!5 - x_0!2 <= 0
 idk_1!26!2: y_0!2_2!5 - x_2!5 <= 0
 sum_1!27: y_0!3_2!5 - x_0!3 - x_2!5 >= -1
 idk_1!27!0: y_0!3_2!5 - x_0!3 <= 0
 idk_1!27!2: y_0!3_2!5 - x_2!5 <= 0
 sum_1!28: y_0!4_2!5 - x_0!4 - x_2!5 >= -1
 idk_1!28!0: y_0!4_2!5 - x_0!4 <= 0
 idk_1!28!2: y_0!4_2!5 - x_2!5 <= 0
 sum_1!29: y_0!5_2!5 - x_0!5 - x_2!5 >= -1
 idk_1!29!0: y_0!5_2!5 - x_0!5 <= 0
 idk_1!29!2: y_0!5_2!5 - x_2!5 <= 0
 sum_1!30: y_0!6_2!5 - x_0!6 - x_2!5 >= -1
 idk_1!30!0: y_0!6_2!5 - x_0!6 <= 0
 idk_1!30!2: y_0!6_2!5 - x_2!5 <= 0
 sum_1!31: y_0!1_2!6 - x_0!1 - x_2!6 >= -1
 idk_1!31!0: y_0!1_2!6 - x_0!1 <= 0
 idk_1!31!2: y_0!1_2!6 - x_2!6 <= 0
 sum_1!32: y_0!2_2!6 - x_0!2 - x_2!6 >= -1
 idk_1!32!0: y_0!2_2!6 - x_0!2 <= 0
 idk_1!32!2: y_0!2_2!6 - x_2!6 <= 0
 sum_1!33: y_0!3_2!6 - x_0!3 - x_2!6 >= -1
 idk_1!33!0: y_0!3_2!6 - x_0!3 <= 0
 idk_1!33!2: y_0!3_2!6 - x_2!6 <= 0
 sum_1!34: y_0!4_2!6 - x_0!4 - x_2!6 >= -1
 idk_1!34!0: y_0!4_2!6 - x_0!4 <= 0
 idk_1!34!2: y_0!4_2!6 - x_2!6 <= 0
 sum_1!35: y_0!5_2!6 - x_0!5 - x_2!6 >= -1
 idk_1!35!0: y_0!5_2!6 - x_0!5 <= 0
 idk_1!35!2: y_0!5_2!6 - x_2!6 <= 0
 sum_1!36: y_0!6_2!6 - x_0!6 - x_2!6 >= -1
 idk_1!36!0: y_0!6_2!6 - x_0!6 <= 0
 idk_1!36!2: y_0!6_2!6 - x_2!6 <= 0
 epc_2!1: -45.38788339674611 y_0!1_1!1 +39.021190963744345 y_0!2_1!1 -18.077682964195446 y_0!3_1!1 -83.18401651101814 y_0!4_1!1 +83.31556039681732 y_0!5_1!1 +11.057464115927402 y_0!6_1!1 +78.68917558584741 y_0!1_1!2 +86.7670665962404 y_0!2_1!2 -75.5172565686932 y_0!3_1!2 -30.468323351679018 y_0!4_1!2 -71.84985420048909 y_0!5_1!2 +76.51729153251378 y_0!6_1!2 -99.06643124804918 y_0!1_1!3 -14.69274710868271 y_0!2_1!3 +16.794399171005182 y_0!3_1!3 -24.360153785303467 y_0!4_1!3 +61.56749694022335 y_0!5_1!3 -51.54943304813766 y_0!6_1!3 +91.4036822995541 y_0!1_1!4 +39.44873055406896 y_0!2_1!4 -74.89185718102857 y_0!3_1!4 +38.471172490742845 y_0!4_1!4 -92.7977720836608 y_0!5_1!4 +48.12839989278558 y_0!6_1!4 +67.941440516369 y_0!1_1!5 -27.764434926317975 y_0!2_1!5 +27.995128931373486 y_0!3_1!5 +32.02263768765113 y_0!4_1!5 +38.29216414684788 y_0!5_1!5 -58.659647079857955 y_0!6_1!5 -16.706126071541576 y_0!1_1!6 +15.591238521566837 y_0!2_1!6 -83.32096934200626 y_0!3_1!6 -13.136433329671519 y_0!4_1!6 +34.49815235085518 y_0!5_1!6 +3.050848611152105 y_0!6_1!6 + lambda_2!1 - mu_2 = 0
 epc_2!2: +49.03387326628217 y_0!1_1!1 -85.70441453906292 y_0!2_1!1 -81.9766212036948 y_0!3_1!1 +17.97409262025424 y_0!4_1!1 -45.934315140883776 y_0!5_1!1 -74.9159664377419 y_0!6_1!1 +17.83359579268884 y_0!1_1!2 +17.129052854270356 y_0!2_1!2 -49.604312204319 y_0!3_1!2 -66.39022635499177 y_0!4_1!2 +73.15980607929805 y_0!5_1!2 -74.40119021564966 y_0!6_1!2 +61.68482280164707 y_0!1_1!3 +49.54394438677366 y_0!2_1!3 -50.74588560562161 y_0!3_1!3 +85.72869738007671 y_0!4_1!3 +39.42043334363379 y_0!5_1!3 -64.58116224663952 y_0!6_1!3 -10.149749438542585 y_0!1_1!4 +76.70667819557403 y_0!2_1!4 +93.2241937083829 y_0!3_1!4 +97.87810906596002 y_0!4_1!4 +29.571517507539454 y_0!5_1!4 -55.40989147889093 y_0!6_1!4 -62.511341127973495 y_0!1_1!5 +38.454837728002246 y_0!2_1!5 +72.84740541230872 y_0!3_1!5 -15.650157823354817 y_0!4_1!5 +50.84513358132426 y_0!5_1!5 -24.141478545416888 y_0!6_1!5 -57.02951648611596 y_0!1_1!6 -63.98932107036235 y_0!2_1!6 +1.4108221778051444 y_0!3_1!6 -43.36494371024329 y_0!4_1!6 +70.74543212064702 y_0!5_1!6 -3.775350627484471 y_0!6_1!6 + lambda_2!2 - mu_2 = 0
 epc_2!3: -84.04138862845116 y_0!1_1!1 -5.303413789484068 y_0!2_1!1 +26.7524981827506 y_0!3_1!1 +4.621803034027195 y_0!4_1!1 +65.09809017320799 y_0!5_1!1 +22.6007549974605 y_0!6_1!1 +4.567851990215189 y_0!1_1!2 -58.959376146685074 y_0!2_1!2 +99.2517301568353 y_0!3_1!2 +98.59190170323797 y_0!4_1!2 +34.353692518393274 y_0!5_1!2 +65.24833464514853 y_0!6_1!2 -98.34449763042296 y_0!1_1!3 +93.29942401742434 y_0!2_1!3 +47.051288999998945 y_0!3_1!3 +45.018858527002976 y_0!4_1!3 -75.19152468195665 y_0!5_1!3 -21.3786201313239 y_0!6_1!3 +18.980367058894544 y_0!1_1!4 +51.44432024022328 y_0!2_1!4 +45.74124373468479 y_0!3_1!4 +58.704233868262776 y_0!4_1!4 -95.03129317773096 y_0!5_1!4 +52.11351072618194 y_0!6_1!4 +13.168451786367498 y_0!1_1!5 +19.0624518811577 y_0!2_1!5 -84.79406629078781 y_0!3_1!5 +3.2987443151505147 y_0!4_1!5 +66.0357917199631 y_0!5_1!5 -75.23557502665207 y_0!6_1!5 -93.16399890648822 y_0!1_1!6 -68.44976540980339 y_0!2_1!6 +78.16738298096084 y_0!3_1!6 +72.24410627807404 y_0!4_1!6 +45.873042698715096 y_0!5_1!6 +3.105032882119758 y_0!6_1!6 + lambda_2!3 - mu_2 = 0
 epc_2!4: +27.664652335132175 y_0!1_1!1 +91.68042822261359 y_0!2_1!1 +48.34559718195905 y_0!3_1!1 +6.275232616860535 y_0!4_1!1 -97.5969535461794 y_0!5_1!1 -91.9804901018592 y_0!6_1!1 +31.64462723583449 y_0!1_1!2 +17.488124519248146 y_0!2_1!2 -65.58150672001577 y_0!3_1!2 +98.59740320213302 y_0!4_1!2 +97.8708713334916 y_0!5_1!2 -14.091295129362067 y_0!6_1!2 -93.829508122878 y_0!1_1!3 +33.95393591711127 y_0!2_1!3 +30.547625999605287 y_0!3_1!3 -45.41726267012764 y_0!4_1!3 -9.385636321154792 y_0!5_1!3 -44.18895161204293 y_0!6_1!3 -85.61487558421896 y_0!1_1!4 +37.79645123731083 y_0!2_1!4 -25.289770199063156 y_0!3_1!4 +32.32184023891327 y_0!4_1!4 +84.8531532936262 y_0!5_1!4 +94.8567231746209 y_0!6_1!4 -27.558207963807718 y_0!1_1!5 +35.579308867875284 y_0!2_1!5 -19.86115581394219 y_0!3_1!5 +79.75337391952183 y_0!4_1!5 +58.613172741530576 y_0!5_1!5 +10.006677905730271 y_0!6_1!5 +2.636786105130966 y_0!1_1!6 -95.82685203529078 y_0!2_1!6 +48.63748325138877 y_0!3_1!6 -57.36618348392295 y_0!4_1!6 +0.4390314959700845 y_0!5_1!6 -71.90741361060955 y_0!6_1!6 + lambda_2!4 - mu_2 = 0
 epc_2!5: -87.77396956078086 y_0!1_1!1 +7.397376780919714 y_0!2_1!1 +51.362846673175625 y_0!3_1!1 +87.6849253045904 y_0!4_1!1 +40.33239588020149 y_0!5_1!1 +35.48476716053011 y_0!6_1!1 +72.8743218885727 y_0!1_1!2 -15.466027149859116 y_0!2_1!2 -15.099006999956373 y_0!3_1!2 +62.375112322353544 y_0!4_1!2 -9.163669562875981 y_0!5_1!2 -6.844329415389794 y_0!6_1!2 -40.085083989286254 y_0!1_1!3 -80.38693778252755 y_0!2_1!3 -21.670359251991968 y_0!3_1!3 -4.414144750892461 y_0!4_1!3 -70.06665435428474 y_0!5_1!3 +75.48416509950664 y_0!6_1!3 +22.866228329335442 y_0!1_1!4 -77.69936291553019 y_0!2_1!4 -81.24608956858503 y_0!3_1!4 +83.64332247528725 y_0!4_1!4 -3.8657975669277533 y_0!5_1!4 +67.9935448388307 y_0!6_1!4 +46.03089497968858 y_0!1_1!5 +72.3806106701233 y_0!2_1!5 +84.98409146867928 y_0!3_1!5 -41.25863010429312 y_0!4_1!5 -56.374614110106556 y_0!5_1!5 +99.59167749807904 y_0!6_1!5 +95.68650661860991 y_0!1_1!6 -26.15140820919916 y_0!2_1!6 +16.158792379286638 y_0!3_1!6 -90.34740484241941 y_0!4_1!6 -34.438530500392346 y_0!5_1!6 -28.83209206844066 y_0!6_1!6 + lambda_2!5 - mu_2 = 0
 epc_2!6: +91.68649986700981 y_0!1_1!1 +58.28198452482053 y_0!2_1!1 +6.900176548601422 y_0!3_1!1 +28.95236531730086 y_0!4_1!1 -41.396322364896456 y_0!5_1!1 -79.89405236510527 y_0!6_1!1 -32.32996661949208 y_0!1_1!2 -99.69775715188752 y_0!2_1!2 -96.15929520072581 y_0!3_1!2 -38.975755266178645 y_0!4_1!2 -78.1856643617466 y_0!5_1!2 +78.02781803903997 y_0!6_1!2 +55.10076272027885 y_0!1_1!3 +43.60885732451624 y_0!2_1!3 +99.02814350616828 y_0!3_1!3 +88.25679808986888 y_0!4_1!3 +86.33774584233072 y_0!5_1!3 +38.64900634895494 y_0!6_1!3 +29.712273251640994 y_0!1_1!4 -29.62685993028198 y_0!2_1!4 +70.86766705216021 y_0!3_1!4 +39.58940695299415 y_0!4_1!4 +15.3775830709953 y_0!5_1!4 +58.88169499816948 y_0!6_1!4 -39.5477252632372 y_0!1_1!5 +18.99144646147262 y_0!2_1!5 -61.90782791186506 y_0!3_1!5 -40.44896116395951 y_0!4_1!5 -68.611249211181 y_0!5_1!5 +27.279667917913827 y_0!6_1!5 -5.365795853228988 y_0!1_1!6 +7.694505120612945 y_0!2_1!6 +70.08481328016791 y_0!3_1!6 +13.918916573493163 y_0!4_1!6 +81.8336435338129 y_0!5_1!6 -89.29256197882538 y_0!6_1!6 + lambda_2!6 - mu_2 = 0
 dc_2: x_2!1 + x_2!2 + x_2!3 + x_2!4 + x_2!5 + x_2!6 = 1
 bc_2!1: lambda_2!1 +299.28943464996655 x_2!1 <= 299.28943464996655
 bc_2!2: lambda_2!2 +299.28943464996655 x_2!2 <= 299.28943464996655
 bc_2!3: lambda_2!3 +299.28943464996655 x_2!3 <= 299.28943464996655
 bc_2!4: lambda_2!4 +299.28943464996655 x_2!4 <= 299.28943464996655
 bc_2!5: lambda_2!5 +299.28943464996655 x_2!5 <= 299.28943464996655
 bc_2!6: lambda_2!6 +299.28943464996655 x_2!6 <= 299.28943464996655
 sum_2!1: y_0!1_1!1 - x_0!1 - x_1!1 >= -1
 idk_2!1!0: y_0!1_1!1 - x_0!1 <= 0
 idk_2!1!1: y_0!1_1!1 - x_1!1 <= 0
 sum_2!2: y_0!2_1!1 - x_0!2 - x_1!1 >= -1
 idk_2!2!0: y_0!2_1!1 - x_0!2 <= 0
 idk_2!2!1: y_0!2_1!1 - x_1!1 <= 0
 sum_2!3: y_0!3_1!1 - x_0!3 - x_1!1 >= -1
 idk_2!3!0: y_0!3_1!1 - x_0!3 <= 0
 idk_2!3!1: y_0!3_1!1 - x_1!1 <= 0
 sum_2!4: y_0!4_1!1 - x_0!4 - x_1!1 >= -1
 idk_2!4!0: y_0!4_1!1 - x_0!4 <= 0
 idk_2!4!1: y_0!4_1!1 - x_1!1 <= 0
 sum_2!5: y_0!5_1!1 - x_0!5 - x_1!1 >= -1
 idk_2!5!0: y_0!5_1!1 - x_0!5 <= 0
 idk_2!5!1: y_0!5_1!1 - x_1!1 <= 0
 sum_2!6: y_0!6_1!1 - x_0!6 - x_1!1 >= -1
 idk_2!6!0: y_0!6_1!1 - x_0!6 <= 0
 idk_2!6!1: y_0!6_1!1 - x_1!1 <= 0
 sum_2!7: y_0!1_1!2 - x_0!1 - x_1!2 >= -1
 idk_2!7!0: y_0!1_1!2 - x_0!1 <= 0
 idk_2!7!1: y_0!1_1!2 - x_1!2 <= 0
 sum_2!8: y_0!2_1!2 - x_0!2 - x_1!2 >= -1
 idk_2!8!0: y_0!2_1!2 - x_0!2 <= 0
 idk_2!8!1: y_0!2_1!2 - x_1!2 <= 0
 sum_2!9: y_0!3_1!2 - x_0!3 - x_1!2 >= -1
 idk_2!9!0: y_0!3_1!2 - x_0!3 <= 0
 idk_2!9!1: y_0!3_1!2 - x_1!2 <= 0
 sum_2!10: y_0!4_1!2 - x_0!4 - x_1!2 >= -1
 idk_2!10!0: y_0!4_1!2 - x_0!4 <= 0
 idk_2!10!1: y_0!4_1!2 - x_1!2 <= 0
 sum_2!11: y_0!5_1!2 - x_0!5 - x_1!2 >= -1
 idk_2!11!0: y_0!5_1!2 - x_0!5 <= 0
 idk_2!11!1: y_0!5_1!2 - x_1!2 <= 0
 sum_2!12: y_0!6_1!2 - x_0!6 - x_1!2 >= -1
 idk_2!12!0: y_0!6_1!2 - x_0!6 <= 0
 idk_2!12!1: y_0!6_1!2 - x_1!2 <= 0
 sum_2!13: y_0!1_1!3 - x_0!1 - x_1!3 >= -1
 idk_2!13!0: y_0!1_1!3 - x_0!1 <= 0
 idk_2!13!1: y_0!1_1!3 - x_1!3 <= 0
 sum_2!14: y_0!2_1!3 - x_0!2 - x_1!3 >= -1
 idk_2!14!0: y_0!2_1!3 - x_0!2 <= 0
 idk_2!14!1: y_0!2_1!3 - x_1!3 <= 0
 sum_2!15: y_0!3_1!3 - x_0!3 - x_1!3 >= -1
 idk_2!15!0: y_0!3_1!3 - x_0!3 <= 0
 idk_2!15!1: y_0!3_1!3 - x_1!3 <= 0
 sum_2!16: y_0!4_1!3 - x_0!4 - x_1!3 >= -1
 idk_2!16!0: y_0!4_1!3 - x_0!4 <= 0
 idk_2!16!1: y_0!4_1!3 - x_1!3 <= 0
 sum_2!17: y_0!5_1!3 - x_0!5 - x_1!3 >= -1
 idk_2!17!0: y_0!5_1!3 - x_0!5 <= 0
 idk_2!17!1: y_0!5_1!3 - x_1!3 <= 0
 sum_2!18: y_0!6_1!3 - x_0!6 - x_1!3 >= -1
 idk_2!18!0: y_0!6_1!3 - x_0!6 <= 0
 idk_2!18!1: y_0!6_1!3 - x_1!3 <= 0
 sum_2!19: y_0!1_1!4 - x_0!1 - x_1!4 >= -1
 idk_2!19!0: y_0!1_1!4 - x_0!1 <= 0
 idk_2!19!1: y_0!1_1!4 - x_1!4 <= 0
 sum_2!20: y_0!2_1!4 - x_0!2 - x_1!4 >= -1
 idk_2!20!0: y_0!2_1!4 - x_0!2 <= 0
 idk_2!20!1: y_0!2_1!4 - x_1!4 <= 0
 sum_2!21: y_0!3_1!4 - x_0!3 - x_1!4 >= -1
 idk_2!21!0: y_0!3_1!4 - x_0!3 <= 0
 idk_2!21!1: y_0!3_1!4 - x_1!4 <= 0
 sum_2!22: y_0!4_1!4 - x_0!4 - x_1!4 >= -1
 idk_2!22!0: y_0!4_1!4 - x_0!4 <= 0
 idk_2!22!1: y_0!4_1!4 - x_1!4 <= 0
 sum_2!23: y_0!5_1!4 - x_0!5 - x_1!4 >= -1
 idk_2!23!0: y_0!5_1!4 - x_0!5 <= 0
 idk_2!23!1: y_0!5_1!4 - x_1!4 <= 0
 sum_2!24: y_0!6_1!4 - x_0!6 - x_1!4 >= -1
 idk_2!24!0: y_0!6_1!4 - x_0!6 <= 0
 idk_2!24!1: y_0!6_1!4 - x_1!4 <= 0
 sum_2!25: y_0!1_1!5 - x_0!1 - x_1!5 >= -1
 idk_2!25!0: y_0!1_1!5 - x_0!1 <= 0
 idk_2!25!1: y_0!1_1!5 - x_1!5 <= 0
 sum_2!26: y_0!2_1!5 - x_0!2 - x_1!5 >= -1
 idk_2!26!0: y_0!2_1!5 - x_0!2 <= 0
 idk_2!26!1: y_0!2_1!5 - x_1!5 <= 0
 sum_2!27: y_0!3_1!5 - x_0!3 - x_1!5 >= -1
 idk_2!27!0: y_0!3_1!5 - x_0!3 <= 0
 idk_2!27!1: y_0!3_1!5 - x_1!5 <= 0
 sum_2!28: y_0!4_1!5 - x_0!4 - x_1!5 >= -1
 idk_2!28!0: y_0!4_1!5 - x_0!4 <= 0
 idk_2!28!1: y_0!4_1!5 - x_1!5 <= 0
 sum_2!29: y_0!5_1!5 - x_0!5 - x_1!5 >= -1
 idk_2!29!0: y_0!5_1!5 - x_0!5 <= 0
 idk_2!29!1: y_0!5_1!5 - x_1!5 <= 0
 sum_2!30: y_0!6_1!5 - x_0!6 - x_1!5 >= -1
 idk_2!30!0: y_0!6_1!5 - x_0!6 <= 0
 idk_2!30!1: y_0!6_1!5 - x_1!5 <= 0
 sum_2!31: y_0!1_1!6 - x_0!1 - x_1!6 >= -1
 idk_2!31!0: y_0!1_1!6 - x_0!1 <= 0
 idk_2!31!1: y_0!1_1!6 - x_1!6 <= 0
 sum_2!32: y_0!2_1!6 - x_0!2 - x_1!6 >= -1
 idk_2!32!0: y_0!2_1!6 - x_0!2 <= 0
 idk_2!32!1: y_0!2_1!6 - x_1!6 <= 0
 sum_2!33: y_0!3_1!6 - x_0!3 - x_1!6 >= -1
 idk_2!33!0: y_0!3_1!6 - x_0!3 <= 0
 idk_2!33!1: y_0!3_1!6 - x_1!6 <= 0
 sum_2!34: y_0!4_1!6 - x_0!4 - x_1!6 >= -1
 idk_2!34!0: y_0!4_1!6 - x_0!4 <= 0
 idk_2!34!1: y_0!4_1!6 - x_1!6 <= 0
 sum_2!35: y_0!5_1!6 - x_0!5 - x_1!6 >= -1
 idk_2!35!0: y_0!5_1!6 - x_0!5 <= 0
 idk_2!35!1: y_0!5_1!6 - x_1!6 <= 0
 sum_2!36: y_0!6_1!6 - x_0!6 - x_1!6 >= -1
 idk_2!36!0: y_0!6_1!6 - x_0!6 <= 0
 idk_2!36!1: y_0!6_1!6 - x_1!6 <= 0
Bounds
 mu_0 free
 mu_1 free
 mu_2 free
Binary
 x_0!1 x_0!2 x_0!3 x_0!4 x_0!5 x_0!6 x_1!1 x_1!2 x_1!3 x_1!4 x_1!5 x_1!6 x_2!1 x_2!2 x_2!3 x_2!4 x_2!5 x_2!6
End
